(set-info :smt-lib-version 2.6)
(set-logic UF)
(set-info :source |Benchmarks from the paper: "Extending Sledgehammer with SMT Solvers" by Jasmin Blanchette, Sascha Bohme, and Lawrence C. Paulson, CADE 2011.  Translated to SMT2 by Andrew Reynolds and Morgan Deters.|)
(set-info :category "industrial")
(set-info :status unknown)
(declare-sort S1 0)
(declare-sort S2 0)
(declare-sort S3 0)
(declare-sort S4 0)
(declare-sort S5 0)
(declare-sort S6 0)
(declare-sort S7 0)
(declare-sort S8 0)
(declare-fun f1 () S1)
(declare-fun f2 () S1)
(declare-fun f3 (S2 S2) S1)
(declare-fun f4 () S2)
(declare-fun f5 (S3 S2) S2)
(declare-fun f6 (S4 S2) S3)
(declare-fun f7 () S4)
(declare-fun f8 () S2)
(declare-fun f9 (S5 S6) S2)
(declare-fun f10 () S5)
(declare-fun f11 () S6)
(declare-fun f12 () S2)
(declare-fun f13 () S2)
(declare-fun f14 (S6 S6) S1)
(declare-fun f15 (S7 S6) S6)
(declare-fun f16 (S8 S6) S7)
(declare-fun f17 () S8)
(declare-fun f18 () S6)
(declare-fun f19 () S7)
(declare-fun f20 () S6)
(assert (not (= f1 f2)))
(assert (not (= (f3 f4 (f5 (f6 f7 f8) (f9 f10 f11))) f1)))
(assert (= (f3 f8 f12) f1))
(assert (= (f3 f13 (f5 (f6 f7 f8) (f9 f10 f11))) f1))
(assert (forall ((?v0 S2) (?v1 S2)) (= (= (f3 ?v0 (f5 (f6 f7 ?v1) f8)) f1) (or (= (f3 ?v0 ?v1) f1) (= ?v0 ?v1)))))
(assert (forall ((?v0 S2)) (= (f3 ?v0 (f5 (f6 f7 ?v0) f8)) f1)))
(assert (forall ((?v0 S6)) (= (f14 ?v0 (f15 (f16 f17 ?v0) f18)) f1)))
(assert (forall ((?v0 S2) (?v1 S2) (?v2 S2)) (=> (= (f3 ?v0 ?v1) f1) (= (f3 (f5 (f6 f7 ?v0) ?v2) (f5 (f6 f7 ?v1) ?v2)) f1))))
(assert (= (f9 f10 f18) f8))
(assert (= (f15 f19 f18) f18))
(assert (forall ((?v0 S6) (?v1 S6)) (= (f9 f10 (f15 (f16 f17 ?v0) ?v1)) (f5 (f6 f7 (f9 f10 ?v0)) (f9 f10 ?v1)))))
(assert (forall ((?v0 S6) (?v1 S6)) (= (f15 f19 (f15 (f16 f17 ?v0) ?v1)) (f15 (f16 f17 (f15 f19 ?v0)) (f15 f19 ?v1)))))
(assert (forall ((?v0 S6) (?v1 S6)) (= (= (f3 (f9 f10 ?v0) (f9 f10 ?v1)) f1) (= (f14 ?v0 ?v1) f1))))
(assert (forall ((?v0 S6) (?v1 S6)) (= (= (f14 (f15 f19 ?v0) (f15 f19 ?v1)) f1) (= (f14 ?v0 ?v1) f1))))
(assert (forall ((?v0 S6) (?v1 S6)) (=> (= (f14 ?v0 ?v1) f1) (= (f3 (f9 f10 ?v0) (f9 f10 ?v1)) f1))))
(assert (forall ((?v0 S6) (?v1 S6)) (=> (= (f14 ?v0 ?v1) f1) (= (f14 (f15 f19 ?v0) (f15 f19 ?v1)) f1))))
(assert (forall ((?v0 S6) (?v1 S6)) (=> (= (f3 (f9 f10 ?v0) (f9 f10 ?v1)) f1) (= (f14 ?v0 ?v1) f1))))
(assert (forall ((?v0 S6) (?v1 S6)) (=> (= (f14 (f15 f19 ?v0) (f15 f19 ?v1)) f1) (= (f14 ?v0 ?v1) f1))))
(assert (forall ((?v0 S2) (?v1 S2) (?v2 S2)) (= (= (f3 (f5 (f6 f7 ?v0) ?v1) (f5 (f6 f7 ?v2) ?v1)) f1) (= (f3 ?v0 ?v2) f1))))
(assert (forall ((?v0 S6) (?v1 S6) (?v2 S6)) (= (= (f14 (f15 (f16 f17 ?v0) ?v1) (f15 (f16 f17 ?v2) ?v1)) f1) (= (f14 ?v0 ?v2) f1))))
(assert (forall ((?v0 S2) (?v1 S2) (?v2 S2)) (let ((?v_0 (f6 f7 ?v0))) (= (= (f3 (f5 ?v_0 ?v1) (f5 ?v_0 ?v2)) f1) (= (f3 ?v1 ?v2) f1)))))
(assert (forall ((?v0 S6) (?v1 S6) (?v2 S6)) (let ((?v_0 (f16 f17 ?v0))) (= (= (f14 (f15 ?v_0 ?v1) (f15 ?v_0 ?v2)) f1) (= (f14 ?v1 ?v2) f1)))))
(assert (forall ((?v0 S2) (?v1 S2) (?v2 S2)) (=> (= (f3 ?v0 ?v1) f1) (= (f3 (f5 (f6 f7 ?v0) ?v2) (f5 (f6 f7 ?v1) ?v2)) f1))))
(assert (forall ((?v0 S6) (?v1 S6) (?v2 S6)) (=> (= (f14 ?v0 ?v1) f1) (= (f14 (f15 (f16 f17 ?v0) ?v2) (f15 (f16 f17 ?v1) ?v2)) f1))))
(assert (= (f14 f20 f11) f1))
(assert (forall ((?v0 S6)) (not (= (f14 ?v0 ?v0) f1))))
(assert (forall ((?v0 S6) (?v1 S6)) (not (= (f14 (f15 (f16 f17 ?v0) ?v1) ?v0) f1))))
(assert (forall ((?v0 S6) (?v1 S6)) (not (= (f14 (f15 (f16 f17 ?v0) ?v1) ?v1) f1))))
(assert (= (f9 f10 f20) f13))
(assert (= (f15 f19 f20) f20))
(assert (forall ((?v0 S6) (?v1 S6)) (= (not (= ?v0 ?v1)) (or (= (f14 ?v0 ?v1) f1) (= (f14 ?v1 ?v0) f1)))))
(assert (forall ((?v0 S2)) (= (= f13 ?v0) (= ?v0 f13))))
(assert (forall ((?v0 S6)) (= (= f20 ?v0) (= ?v0 f20))))
(assert (forall ((?v0 S6) (?v1 S6)) (= (f15 (f16 f17 ?v0) ?v1) (f15 (f16 f17 ?v1) ?v0))))
(assert (forall ((?v0 S6) (?v1 S6) (?v2 S6)) (let ((?v_1 (f16 f17 ?v0)) (?v_0 (f16 f17 ?v1))) (= (f15 ?v_1 (f15 ?v_0 ?v2)) (f15 ?v_0 (f15 ?v_1 ?v2))))))
(assert (forall ((?v0 S6) (?v1 S6) (?v2 S6)) (let ((?v_0 (f16 f17 ?v0))) (= (f15 (f16 f17 (f15 ?v_0 ?v1)) ?v2) (f15 ?v_0 (f15 (f16 f17 ?v1) ?v2))))))
(assert (forall ((?v0 S6) (?v1 S6) (?v2 S6)) (let ((?v_0 (f16 f17 ?v0))) (= (= (f15 ?v_0 ?v1) (f15 ?v_0 ?v2)) (= ?v1 ?v2)))))
(assert (forall ((?v0 S6) (?v1 S6) (?v2 S6)) (= (= (f15 (f16 f17 ?v0) ?v1) (f15 (f16 f17 ?v2) ?v1)) (= ?v0 ?v2))))
(assert (forall ((?v0 S6) (?v1 S6) (?v2 S6)) (let ((?v_0 (f16 f17 ?v0))) (= (= (f14 (f15 ?v_0 ?v1) (f15 ?v_0 ?v2)) f1) (= (f14 ?v1 ?v2) f1)))))
(assert (forall ((?v0 S6) (?v1 S6)) (=> (not (= ?v0 ?v1)) (=> (=> (= (f14 ?v0 ?v1) f1) false) (=> (=> (= (f14 ?v1 ?v0) f1) false) false)))))
(assert (forall ((?v0 S6)) (=> (= (f14 ?v0 ?v0) f1) false)))
(assert (forall ((?v0 S6) (?v1 S6)) (=> (= (f14 ?v0 ?v1) f1) (not (= ?v1 ?v0)))))
(assert (forall ((?v0 S6) (?v1 S6)) (=> (= (f14 ?v0 ?v1) f1) (not (= ?v0 ?v1)))))
(assert (forall ((?v0 S6) (?v1 S6) (?v2 S6)) (=> (= (f14 ?v0 ?v1) f1) (= (f14 ?v0 (f15 (f16 f17 ?v1) ?v2)) f1))))
(assert (forall ((?v0 S6) (?v1 S6) (?v2 S6)) (=> (= (f14 ?v0 ?v1) f1) (= (f14 ?v0 (f15 (f16 f17 ?v2) ?v1)) f1))))
(check-sat)
(exit)
